c WARNING: for repeatability, setting FPU to use double precision
d VARIABLES            119718       
d CONSTRAINTS          534036       
c ============================[ Problem Statistics ]=============================
c |                                                                             |
c |  Number of variables:        119718                                         |
c |  Number of clauses:          534036                                         |
c |  Parse time:                   0.09 s                                       |
c |                                                                             |
c ============================[ Search Statistics ]==============================
c | Conflicts |          ORIGINAL         |          LEARNT          | Progress |
c |           |    Vars  Clauses Literals |    Limit  Clauses Lit/Cl |          |
c ===============================================================================
c |       100 |  102037   483748  1172414 |   177374      100     24 | 14.769 % |
c |       250 |  102037   483748  1172414 |   195111      250     47 | 14.769 % |
c |       475 |  102037   483748  1172414 |   214622      475     65 | 14.769 % |
c |       812 |  102037   483748  1172414 |   236085      812     61 | 14.769 % |
c |      1318 |  102037   483748  1172414 |   259693     1318     86 | 14.769 % |
c |      2077 |  102037   483748  1172414 |   285663     2077     75 | 14.769 % |
c |      3216 |  102037   483748  1172414 |   314229     3216     54 | 14.769 % |
c |      4924 |  102037   483748  1172414 |   345652     4924     64 | 14.769 % |
c |      7486 |  102037   483748  1172414 |   380217     7486     70 | 14.769 % |
c |     11330 |  102037   483748  1172414 |   418239    11330     80 | 14.769 % |
c |     17096 |  102037   483748  1172414 |   460063    17096    105 | 14.769 % |
c |     25745 |  102037   483748  1172414 |   506069    25745    125 | 14.769 % |
c |     38719 |  102037   483748  1172414 |   556676    38719    141 | 14.769 % |
c |     58180 |  102037   483748  1172414 |   612344    58180    176 | 14.769 % |
c |     87372 |  102037   483748  1172414 |   673578    87372    172 | 14.769 % |
c |    131161 |  102037   483748  1172414 |   740936   131161    186 | 14.769 % |
c |    196845 |  102037   483748  1172414 |   815029   196845    190 | 14.769 % |
c |    295371 |  102037   483748  1172414 |   896532   295371    202 | 14.769 % |
c |    443160 |  102037   483748  1172414 |   986186   443160    206 | 14.769 % |
c |    664843 |  102035   483732  1172378 |  1084804   664833    207 | 14.771 % |
c |    997368 |  101890   482909  1170486 |  1193285   994276    196 | 14.892 % |
c ===============================================================================
c restarts              : 2229
c conflicts             : 1185440        (1159 /sec)
c decisions             : 4308945        (0.00 % random) (4212 /sec)
c propagations          : 1975729125     (1931181 /sec)
c conflict literals     : 259447787      (27.02 % deleted)
d RESTARTS             2229
d FAILURES             1185440      
d NODES                4308945      
d BACKTRACKS           4308945      
d PROPAGATIONS         1975729125   
d NOGOODSIZE           218.86 
d MEMORY               1552.00 
d TIME                 1023.07 

s UNSATISFIABLE
